files/upTests/tuple-of-sets2/0007.eprime.solution
language ESSENCE' 1.0
$ minion Nodes: 10
$ minion TotalTime: 0.001149
$ Savile Row TotalTime: 0.587
letting a_tuple1 be 0
letting b_tuple1 be 0
letting b_tuple2 be 3
letting c_tuple1 be 0
letting c_tuple2_SetExplicitVarSize_tuple2 be [3, 3;int(1..2)]
letting c_tuple2_SetExplicitVarSize_tuple1 be [false, false;int(1..2)]
letting b_tuple3_SetOccurrence be [false, false;int(3..4)]
